/*********************************************
 * OPL 12.6.3.0 Data
 * Author: zihao
 * Creation Date: 2020-6-10 at ÏÂÎç6:36:19
 *********************************************/
NbPouring = 3;
NbFurnace = 6;
NbDeviceClass = 3;
NbDeviceNumber = 3;
MaxOperationTime = [38 30 55];
MinOperationTime = [32 15 40];
TransportTime = [
					[
						[
							[0 0 0] [10 10 13] [16 15 14]
						]
						[
							[0 0 0] [15 15 13] [16 15 14]
						]
						[
							[0 0 0] [15 15 13] [16 16 15]
						]
					]
					[
						[
							[0 0 0] [0 18 21] [22 25 25]
						]
						[
							[0 0 0] [0 0 18] [22 25 25]
						]
						[
							[0 0 0] [0 0 0] [25 22 22]
						]
					]
					[
						[
							[0 0 0] [0 0 0] [0 0 0]
						]
						[
							[0 0 0] [0 0 0] [0 0 0]
						]
						[
							[0 0 0] [0 0 0] [0 0 0]
						]
					]
				];